(set-info :smt-lib-version 2.6)
(set-logic QF_AX)
(set-info :status unsat)
(declare-sort Index 0)
(declare-sort Element 0)
(declare-fun a1 () (Array Index Element))
(declare-fun i0 () Index)
(declare-fun i1 () Index)
(assert (let ((?v_0 (select a1 i1))) (let ((?v_1 (store (store a1 i1 ?v_0) i1 ?v_0))) (let ((?v_2 (select ?v_1 i0))) (let ((?v_3 (store (store ?v_1 i0 ?v_2) i0 ?v_2))) (not (= ?v_3 ?v_3)))))))
(check-sat)
(exit)
